% Logging successfully configured
%%%mzn-stat: initTime=0.075122954
%%%mzn-stat: objective=1211
%%%mzn-stat: nodes=2294
%%%mzn-stat: restarts=0
%%%mzn-stat: peakDepth=1744
%%%mzn-stat: solveTime=0.15020957
%%%mzn-stat: variables=2538
%%%mzn-stat: propagators=7047
%%%mzn-stat: failures=475
%%%mzn-stat: propagations=323320
%%%mzn-stat: nogoods=475
%%%mzn-stat: numAtomicConstraintsPropagated=0
%%%mzn-stat: circuitNumber4951PropagationsThatFoundConflict=5
%%%mzn-stat: circuitNumber4951TotalFixedEdgesAtConflict=464
%%%mzn-stat: circuitNumber4951NumberOfConflicts=5
%%%mzn-stat: circuitNumber4951PropagationsThatPruned=241
%%%mzn-stat: circuitNumber4951PropagationsTotal=694
%%%mzn-stat: AverageConflictSize=8.538947368421052
%%%mzn-stat: NumUnitNogoodsLearned=0
%%%mzn-stat: AverageLearnedNogoodLength=53.22736842105263
%%%mzn-stat: AverageBacktrackAmount=0
%%%mzn-stat: AverageLbd=26.40421052631579
%%%mzn-stat: 2AutonomousSearchNumBackupCalled=1661
%%%mzn-stat: 2AutonomousSearchNumPredicatesRemoved=0
%%%mzn-stat: 2AutonomousSearchNumCalls=1662
%%%mzn-stat: 2AutonomousSearchNumPredicatesAdded=1771
%%%mzn-stat: 2AutonomousSearchAverageSizeOfHeap=1.065583634175692
%%%mzn-stat: 2AutonomousSearchNumAssignedPredicatesEncountered=1771
%%%mzn-stat-end
maxleg = 1211;
succ = array1d(1..100,[2, 11, 5, 7, 12, 3, 16, 6, 14, 17, 15, 9, 4, 20, 21, 19, 18, 8, 22, 35, 13, 24, 1, 30, 10, 36, 23, 25, 32, 31, 37, 34, 41, 39, 27, 38, 33, 45, 40, 28, 50, 44, 47, 54, 63, 42, 49, 46, 51, 68, 29, 61, 58, 43, 48, 55, 59, 57, 75, 56, 65, 71, 64, 76, 66, 72, 60, 80, 67, 53, 73, 92, 81, 70, 86, 94, 69, 88, 52, 97, 98, 26, 79, 82, 83, 89, 78, 90, 77, 91, 62, 100, 85, 99, 87, 84, 96, 93, 95, 74]);
% time elapsed: 15.02 s
----------
%%%mzn-stat: initTime=0.075122954
%%%mzn-stat: objective=1029
%%%mzn-stat: nodes=3980
%%%mzn-stat: restarts=0
%%%mzn-stat: peakDepth=1744
%%%mzn-stat: solveTime=0.157096041
%%%mzn-stat: variables=2538
%%%mzn-stat: propagators=7047
%%%mzn-stat: failures=476
%%%mzn-stat: propagations=337223
%%%mzn-stat: nogoods=476
%%%mzn-stat: numAtomicConstraintsPropagated=0
%%%mzn-stat: circuitNumber4951PropagationsThatFoundConflict=6
%%%mzn-stat: circuitNumber4951TotalFixedEdgesAtConflict=562
%%%mzn-stat: circuitNumber4951NumberOfConflicts=6
%%%mzn-stat: circuitNumber4951PropagationsThatPruned=243
%%%mzn-stat: circuitNumber4951PropagationsTotal=782
%%%mzn-stat: AverageConflictSize=8.542016806722689
%%%mzn-stat: NumUnitNogoodsLearned=0
%%%mzn-stat: AverageLearnedNogoodLength=53.29201680672269
%%%mzn-stat: AverageBacktrackAmount=0
%%%mzn-stat: AverageLbd=26.52310924369748
%%%mzn-stat: 2AutonomousSearchNumBackupCalled=3260
%%%mzn-stat: 2AutonomousSearchNumPredicatesRemoved=0
%%%mzn-stat: 2AutonomousSearchNumCalls=3262
%%%mzn-stat: 2AutonomousSearchNumPredicatesAdded=1911
%%%mzn-stat: 2AutonomousSearchAverageSizeOfHeap=1.089209074187615
%%%mzn-stat: 2AutonomousSearchNumAssignedPredicatesEncountered=3553
%%%mzn-stat-end
maxleg = 1029;
succ = array1d(1..100,[2, 11, 5, 7, 12, 3, 16, 6, 14, 17, 15, 9, 4, 20, 21, 19, 18, 8, 22, 35, 13, 24, 1, 30, 10, 36, 23, 25, 32, 31, 37, 34, 41, 39, 27, 38, 33, 45, 40, 28, 50, 44, 47, 54, 63, 42, 49, 46, 51, 68, 29, 61, 58, 43, 48, 55, 59, 57, 75, 56, 65, 71, 64, 76, 66, 72, 60, 80, 67, 53, 73, 92, 81, 70, 86, 94, 69, 90, 52, 97, 98, 26, 79, 82, 83, 89, 78, 74, 77, 91, 62, 100, 88, 85, 87, 84, 96, 93, 95, 99]);
% time elapsed: 15.02 s
----------
%%%mzn-stat: initTime=0.075122954
%%%mzn-stat: objective=417
%%%mzn-stat: nodes=5675
%%%mzn-stat: restarts=0
%%%mzn-stat: peakDepth=1744
%%%mzn-stat: solveTime=0.162644417
%%%mzn-stat: variables=2538
%%%mzn-stat: propagators=7047
%%%mzn-stat: failures=479
%%%mzn-stat: propagations=353660
%%%mzn-stat: nogoods=479
%%%mzn-stat: numAtomicConstraintsPropagated=0
%%%mzn-stat: circuitNumber4951PropagationsThatFoundConflict=7
%%%mzn-stat: circuitNumber4951TotalFixedEdgesAtConflict=658
%%%mzn-stat: circuitNumber4951NumberOfConflicts=7
%%%mzn-stat: circuitNumber4951PropagationsThatPruned=248
%%%mzn-stat: circuitNumber4951PropagationsTotal=886
%%%mzn-stat: AverageConflictSize=8.501043841336116
%%%mzn-stat: NumUnitNogoodsLearned=0
%%%mzn-stat: AverageLearnedNogoodLength=53.020876826722336
%%%mzn-stat: AverageBacktrackAmount=0
%%%mzn-stat: AverageLbd=26.384133611691023
%%%mzn-stat: 2AutonomousSearchNumBackupCalled=4853
%%%mzn-stat: 2AutonomousSearchNumPredicatesRemoved=0
%%%mzn-stat: 2AutonomousSearchNumCalls=4856
%%%mzn-stat: 2AutonomousSearchNumPredicatesAdded=2056
%%%mzn-stat: 2AutonomousSearchAverageSizeOfHeap=1.1260296540362438
%%%mzn-stat: 2AutonomousSearchNumAssignedPredicatesEncountered=5468
%%%mzn-stat-end
maxleg = 417;
succ = array1d(1..100,[2, 11, 5, 7, 12, 3, 16, 6, 14, 17, 15, 9, 4, 20, 21, 19, 18, 8, 22, 35, 13, 24, 1, 30, 10, 36, 23, 25, 32, 31, 37, 34, 41, 39, 27, 38, 33, 45, 40, 28, 50, 44, 47, 54, 63, 42, 49, 46, 51, 68, 29, 61, 58, 43, 48, 55, 59, 57, 75, 56, 65, 71, 64, 76, 66, 72, 60, 80, 67, 53, 73, 92, 89, 70, 86, 94, 69, 74, 52, 97, 62, 26, 79, 82, 83, 93, 88, 90, 77, 91, 78, 100, 98, 85, 87, 84, 96, 81, 95, 99]);
% time elapsed: 15.02 s
----------
%%%mzn-stat: initTime=0.075122954
%%%mzn-stat: objective=415
%%%mzn-stat: nodes=8324
%%%mzn-stat: restarts=0
%%%mzn-stat: peakDepth=1744
%%%mzn-stat: solveTime=0.367401372
%%%mzn-stat: variables=2538
%%%mzn-stat: propagators=7047
%%%mzn-stat: failures=1255
%%%mzn-stat: propagations=814508
%%%mzn-stat: nogoods=1255
%%%mzn-stat: numAtomicConstraintsPropagated=0
%%%mzn-stat: circuitNumber4951PropagationsThatFoundConflict=29
%%%mzn-stat: circuitNumber4951TotalFixedEdgesAtConflict=2645
%%%mzn-stat: circuitNumber4951NumberOfConflicts=29
%%%mzn-stat: circuitNumber4951PropagationsThatPruned=438
%%%mzn-stat: circuitNumber4951PropagationsTotal=1896
%%%mzn-stat: AverageConflictSize=14.305179282868526
%%%mzn-stat: NumUnitNogoodsLearned=0
%%%mzn-stat: AverageLearnedNogoodLength=54.56573705179283
%%%mzn-stat: AverageBacktrackAmount=0
%%%mzn-stat: AverageLbd=24.501195219123506
%%%mzn-stat: 2AutonomousSearchNumBackupCalled=6463
%%%mzn-stat: 2AutonomousSearchNumPredicatesRemoved=0
%%%mzn-stat: 2AutonomousSearchNumCalls=6467
%%%mzn-stat: 2AutonomousSearchNumPredicatesAdded=3916
%%%mzn-stat: 2AutonomousSearchAverageSizeOfHeap=1.1697850626256379
%%%mzn-stat: 2AutonomousSearchNumAssignedPredicatesEncountered=7565
%%%mzn-stat-end
maxleg = 415;
succ = array1d(1..100,[2, 11, 5, 7, 12, 3, 16, 6, 14, 17, 15, 9, 4, 20, 21, 19, 18, 8, 22, 35, 13, 24, 1, 30, 10, 36, 23, 25, 32, 31, 37, 34, 41, 39, 27, 38, 33, 45, 40, 28, 50, 44, 47, 54, 63, 42, 49, 46, 51, 68, 29, 61, 58, 43, 48, 55, 59, 57, 75, 56, 65, 71, 64, 76, 66, 72, 60, 80, 67, 53, 73, 92, 89, 78, 86, 94, 69, 91, 52, 97, 62, 26, 79, 82, 83, 93, 88, 90, 77, 74, 70, 100, 98, 85, 87, 84, 96, 81, 95, 99]);
% time elapsed: 15.23 s
----------
%%%mzn-stat: initTime=0.075122954
%%%mzn-stat: objective=395
%%%mzn-stat: nodes=121682
%%%mzn-stat: restarts=0
%%%mzn-stat: peakDepth=1744
%%%mzn-stat: solveTime=47.704425162
%%%mzn-stat: variables=2538
%%%mzn-stat: propagators=7047
%%%mzn-stat: failures=95081
%%%mzn-stat: propagations=50360034
%%%mzn-stat: nogoods=95081
%%%mzn-stat: numAtomicConstraintsPropagated=0
%%%mzn-stat: circuitNumber4951PropagationsThatFoundConflict=1359
%%%mzn-stat: circuitNumber4951TotalFixedEdgesAtConflict=115399
%%%mzn-stat: circuitNumber4951NumberOfConflicts=1359
%%%mzn-stat: circuitNumber4951PropagationsThatPruned=24513
%%%mzn-stat: circuitNumber4951PropagationsTotal=111393
%%%mzn-stat: AverageConflictSize=32.13943900463815
%%%mzn-stat: NumUnitNogoodsLearned=0
%%%mzn-stat: AverageLearnedNogoodLength=80.23202322230519
%%%mzn-stat: AverageBacktrackAmount=0
%%%mzn-stat: AverageLbd=37.188565538856345
%%%mzn-stat: 2AutonomousSearchNumBackupCalled=8052
%%%mzn-stat: 2AutonomousSearchNumPredicatesRemoved=0
%%%mzn-stat: 2AutonomousSearchNumCalls=8057
%%%mzn-stat: 2AutonomousSearchNumPredicatesAdded=6923
%%%mzn-stat: 2AutonomousSearchAverageSizeOfHeap=1.3177361300732282
%%%mzn-stat: 2AutonomousSearchNumAssignedPredicatesEncountered=10617
%%%mzn-stat-end
maxleg = 395;
succ = array1d(1..100,[2, 11, 5, 7, 12, 3, 16, 6, 14, 17, 15, 9, 4, 20, 21, 19, 18, 8, 22, 35, 13, 24, 1, 30, 10, 36, 23, 25, 32, 31, 37, 34, 41, 39, 27, 38, 33, 45, 40, 28, 50, 44, 47, 54, 63, 42, 49, 46, 51, 68, 29, 61, 58, 43, 48, 55, 59, 57, 75, 56, 65, 71, 64, 76, 66, 72, 69, 80, 77, 91, 73, 95, 60, 53, 86, 94, 82, 70, 83, 92, 93, 26, 85, 96, 87, 98, 88, 90, 67, 78, 62, 84, 89, 99, 79, 97, 100, 81, 52, 74]);
% time elapsed: 62.58 s
----------
%%%mzn-stat: initTime=0.075122954
%%%mzn-stat: objective=395
%%%mzn-stat: nodes=3648869
%%%mzn-stat: restarts=0
%%%mzn-stat: peakDepth=1744
%%%mzn-stat: solveTime=1785.192689285
%%%mzn-stat: variables=2538
%%%mzn-stat: propagators=7047
%%%mzn-stat: failures=3004474
%%%mzn-stat: propagations=1645330923
%%%mzn-stat: nogoods=3004474
%%%mzn-stat: numAtomicConstraintsPropagated=0
%%%mzn-stat: circuitNumber4951PropagationsThatFoundConflict=82960
%%%mzn-stat: circuitNumber4951TotalFixedEdgesAtConflict=7209174
%%%mzn-stat: circuitNumber4951NumberOfConflicts=82960
%%%mzn-stat: circuitNumber4951PropagationsThatPruned=546061
%%%mzn-stat: circuitNumber4951PropagationsTotal=3527609
%%%mzn-stat: AverageConflictSize=33.50649864169235
%%%mzn-stat: NumUnitNogoodsLearned=0
%%%mzn-stat: AverageLearnedNogoodLength=79.13502896014411
%%%mzn-stat: AverageBacktrackAmount=0
%%%mzn-stat: AverageLbd=32.23357266529848
%%%mzn-stat: 2AutonomousSearchNumBackupCalled=8052
%%%mzn-stat: 2AutonomousSearchNumPredicatesRemoved=0
%%%mzn-stat: 2AutonomousSearchNumCalls=8057
%%%mzn-stat: 2AutonomousSearchNumPredicatesAdded=10251
%%%mzn-stat: 2AutonomousSearchAverageSizeOfHeap=1.3177361300732282
%%%mzn-stat: 2AutonomousSearchNumAssignedPredicatesEncountered=10617
%%%mzn-stat-end
